p cnf 25 150
-16 -21 0
-5 -20 0
-21 -25 0
-21 -23 0
-2 -4 0
-13 -23 0
-1 -2 0
-16 -20 0
-6 -8 0
-14 -15 0
-4 -14 0
-8 -10 0
-13 -19 0
-17 -20 0
-8 -18 0
-12 -13 0
-8 -23 0
-15 -20 0
-15 -16 0
-18 -19 0
-4 -7 0
-16 -17 0
-3 -9 0
-9 -19 0
-20 -21 0
-5 -25 0
-18 -25 0
-13 -14 0
-10 -25 0
-12 -19 0
-3 -23 0
-12 -14 0
-22 -24 0
-14 -19 0
-5 -8 0
-12 -17 0
-13 -20 0
-1 -11 0
-6 -7 0
-14 -17 0
-20 -23 0
-2 -17 0
-10 -15 0
6 7 8 9 10 0
-7 -9 0
-1 -10 0
-10 -11 0
-22 -25 0
21 22 23 24 25 0
-19 -23 0
-5 -15 0
-5 -10 0
-11 -14 0
-4 -19 0
-17 -22 0
-17 -18 0
-19 -24 0
11 12 13 14 15 0
5 10 15 20 25 0
-2 -7 0
-6 -15 0
-18 -20 0
-4 -22 0
-19 -22 0
-2 -9 0
-2 -12 0
-8 -15 0
-16 -25 0
-1 -21 0
-3 -24 0
-3 -8 0
-18 -23 0
-6 -21 0
4 9 14 19 24 0
-2 -3 0
-1 -5 0
-13 -15 0
-11 -12 0
-8 -9 0
-3 -10 0
-1 -3 0
-16 -18 0
-9 -13 0
-3 -4 0
-16 -19 0
-6 -11 0
-5 -23 0
-3 -18 0
-6 -10 0
-4 -24 0
-2 -24 0
-11 -15 0
-7 -17 0
-9 -12 0
-8 -14 0
-4 -5 0
-15 -18 0
-8 -13 0
-23 -25 0
-5 -21 0
-19 -20 0
-9 -24 0
-2 -22 0
-7 -14 0
-12 -15 0
-17 -24 0
-10 -13 0
-22 -23 0
-4 -9 0
-3 -5 0
-2 -5 0
-11 -16 0
-1 -4 0
-14 -18 0
-7 -10 0
-15 -25 0
-21 -24 0
-1 -16 0
16 17 18 19 20 0
-5 -6 0
-11 -20 0
-4 -8 0
1 6 11 16 21 0
-17 -19 0
-21 -22 0
-9 -14 0
3 8 13 18 23 0
-4 -23 0
-7 -8 0
-1 -25 0
-12 -22 0
-23 -24 0
-7 -22 0
-24 -25 0
-3 -13 0
-7 -12 0
-1 -6 0
2 7 12 17 22 0
-6 -16 0
-3 -25 0
-9 -10 0
-11 -21 0
-11 -13 0
-14 -24 0
-20 -25 0
-13 -18 0
-10 -20 0
1 2 3 4 5 0
-6 -9 0
-18 -24 0
